100
128
1
12
1
23
4
2
43
28
23
23
30
13
3
10
8
22
10
18
5
10
11
8
26
22
4
29
2
31
29
18
51
24
47
13
18
2
9
1
36
44
13
55
49
24
45
58
60
61
3
42
1
2
2
49
32
52
38
41
40
52
5
41
6
2
44
31
46
46
2
1
15
38
60
51
52
61
42
50
58
63
40
2
15
47
59
49
17
4
46
40
20
60
7
21
35
64
36
1
64
36